0 125
1 126
2 127
3 126
4 126
5 126
6 129
7 137
8 139
9 141
10 139
11 147
12 140
13 140
14 132
15 137
16 138
17 138
18 153
19 138
20 155
21 139
22 139
23 139
24 141
25 140
26 148
27 140
28 140
29 141
30 135
31 136
32 154
33 137
34 155
35 138
36 138
37 139
38 138
39 140
40 139
41 139
42 139
43 139
44 139
45 145
46 139
47 139
48 141
49 140
50 139
51 139
52 142
53 156
54 139
55 139
56 139
57 139
58 140
59 139
60 148
61 127
62 127
63 126
64 127
65 129
66 127
67 134
68 144
69 130
70 137
71 135
72 135
73 136
74 137
75 154
76 137
77 139
78 138
79 155
80 149
81 137
82 138
83 138
84 155
85 138
86 155
87 145
88 138
89 154
90 138
91 138
92 139
93 141
94 139
95 139
96 139
97 139
98 139
99 140
100 139
101 139
102 139
103 139
104 139
105 139
106 150
107 140
108 139
109 139
110 139
111 139
112 139
113 139
114 156
115 153
116 139
117 139
118 139
119 169
120 139
121 139
122 139
123 139
124 140
125 139
126 139
127 139
128 156
129 127
130 126
131 126
132 126
133 127
134 126
135 126
136 127
137 126
138 126
139 139
140 126
141 143
142 145
143 127
144 126
145 140
146 126
147 147
148 128
149 130
150 144
151 129
152 146
153 129
154 131
155 146
156 164
157 133
158 132
159 135
160 133
161 135
162 134
163 136
164 135
165 136
166 136
167 153
168 136
169 135
170 154
171 136
172 138
173 140
174 136
175 136
176 138
177 138
178 138
179 137
180 138
181 138
182 154
183 138
184 137
185 150
186 138
187 138
188 138
189 137
190 138
191 138
192 138
193 138
194 140
195 138
196 138
197 142
198 155
199 138
200 162
201 139
202 139
203 140
204 138
205 138
206 140
207 139
208 139
209 138
210 139
211 139
212 138
213 139
214 139
215 138
216 139
217 138
218 139
219 140
220 139
221 138
222 139
223 139
224 139
225 139
